2 100 1282
2 6 3 3 5 7 5 3 7 5
2 3
1 6
4 2 3
0 40.0 50.0 0.0 0.0 0 240
2 25.0 85.0 10.0 20.0 130 190 4 0 1 0 1 0 1 1 0 1 0
3 22.0 75.0 10.0 30.0 35 95 68 0 0 1 0 0 0 0 0 0 0
4 22.0 85.0 10.0 10.0 94 154 86 0 0 0 0 0 0 0 0 1 0
5 20.0 80.0 10.0 40.0 126 186 70 0 1 0 0 0 0 0 0 0 1
6 20.0 85.0 10.0 20.0 40 100 33 0 1 0 0 0 0 0 0 0 0
7 18.0 75.0 10.0 20.0 80 140 45 1 0 1 0 0 0 0 1 0 0
8 15.0 75.0 10.0 20.0 64 124 41 0 0 0 0 0 1 0 0 0 0
9 15.0 80.0 10.0 10.0 76 136 61 0 0 0 1 0 0 1 1 0 0
10 10.0 35.0 10.0 20.0 76 136 74 0 0 0 0 0 0 1 0 0 1
11 10.0 40.0 10.0 30.0 104 164 76 0 0 0 0 1 1 0 0 0 0
12 8.0 40.0 10.0 40.0 44 104 70 0 1 0 0 0 1 1 0 1 1
13 8.0 45.0 10.0 20.0 49 109 41 0 0 0 0 1 1 1 0 1 0
14 5.0 35.0 10.0 10.0 127 187 98 1 1 1 0 0 0 0 0 0 0
15 5.0 45.0 10.0 10.0 35 95 90 0 0 0 0 0 0 1 0 0 1
16 2.0 40.0 10.0 20.0 43 103 81 0 0 0 0 0 1 0 0 0 0
17 0.0 40.0 10.0 20.0 57 117 18 1 0 0 0 0 1 0 0 1 1
18 0.0 45.0 10.0 20.0 129 189 24 0 0 0 0 1 0 0 0 1 0
19 44.0 5.0 10.0 20.0 72 132 45 0 0 0 0 0 1 0 0 0 0
20 42.0 10.0 10.0 40.0 57 117 39 0 0 1 0 1 1 0 0 0 0
21 42.0 15.0 10.0 10.0 107 167 89 0 0 0 0 0 1 1 0 0 0
22 40.0 5.0 10.0 10.0 52 112 9 1 0 1 0 0 0 1 0 0 1
23 40.0 15.0 10.0 40.0 77 137 55 0 1 0 0 0 0 0 0 1 1
24 38.0 5.0 10.0 30.0 50 110 70 1 1 1 0 0 0 0 0 0 0
25 38.0 15.0 10.0 10.0 133 193 59 0 0 0 0 0 0 0 0 1 0
26 35.0 5.0 10.0 20.0 124 184 34 0 0 0 1 0 0 0 0 0 1
27 95.0 30.0 10.0 30.0 100 160 78 1 0 0 0 1 0 1 0 0 1
28 95.0 35.0 10.0 20.0 57 117 47 1 1 0 0 0 0 1 0 0 0
29 92.0 30.0 10.0 10.0 55 115 81 0 1 0 0 0 0 0 0 0 0
30 90.0 35.0 10.0 10.0 52 112 61 0 0 1 0 1 0 1 0 0 0
31 88.0 30.0 10.0 10.0 59 119 58 1 0 0 0 0 0 0 0 0 1
32 88.0 35.0 10.0 20.0 50 110 63 0 0 0 0 0 1 0 0 0 0
33 87.0 30.0 10.0 10.0 116 176 76 0 1 0 1 0 0 0 1 1 0
34 85.0 25.0 10.0 10.0 51 111 70 0 0 0 1 0 0 1 0 0 0
35 85.0 35.0 10.0 30.0 96 156 64 0 1 0 1 0 0 0 0 0 0
36 67.0 85.0 10.0 20.0 124 184 48 0 0 1 0 0 0 0 0 0 0
37 65.0 85.0 10.0 40.0 43 103 95 0 0 0 1 0 0 1 0 0 0
38 65.0 82.0 10.0 10.0 109 169 11 0 0 0 0 0 0 0 1 1 1
39 62.0 80.0 10.0 30.0 60 120 49 0 1 0 1 0 0 0 1 1 1
40 60.0 80.0 10.0 10.0 36 96 95 0 0 0 0 0 0 0 0 1 0
41 60.0 85.0 10.0 30.0 70 130 80 0 0 0 0 1 1 0 0 1 0
42 58.0 75.0 10.0 20.0 77 137 69 1 1 0 0 0 0 0 0 1 0
43 55.0 80.0 10.0 10.0 33 93 98 0 0 0 0 0 0 1 0 1 0
44 55.0 85.0 10.0 20.0 113 173 87 1 0 0 1 1 0 1 0 0 0
45 55.0 82.0 10.0 10.0 49 109 75 1 1 0 0 1 1 0 1 0 0
46 20.0 82.0 10.0 10.0 37 97 60 1 0 1 0 0 0 0 0 0 0
47 18.0 80.0 10.0 10.0 98 158 80 0 1 0 0 0 1 0 0 0 0
48 2.0 45.0 10.0 10.0 38 98 42 1 0 0 1 0 1 0 1 0 0
49 42.0 5.0 10.0 10.0 124 184 47 1 0 1 0 0 0 1 1 1 0
50 42.0 12.0 10.0 10.0 89 149 95 1 0 0 0 0 0 0 1 0 0
51 72.0 35.0 10.0 30.0 101 161 3 1 0 0 0 0 0 1 0 1 0
52 55.0 20.0 10.0 19.0 68 128 13 1 1 0 0 1 0 1 0 0 0
53 25.0 30.0 10.0 3.0 37 97 39 0 0 0 1 0 0 0 0 0 0
54 20.0 50.0 10.0 5.0 76 136 4 0 0 0 0 0 1 0 0 0 0
55 55.0 60.0 10.0 16.0 124 184 25 0 0 0 0 1 0 0 1 0 0
56 30.0 60.0 10.0 16.0 125 185 90 0 0 0 0 0 1 0 0 0 0
57 50.0 35.0 10.0 19.0 115 175 49 0 1 0 0 1 1 1 0 1 0
58 30.0 25.0 10.0 23.0 81 141 45 0 0 0 0 1 0 0 0 0 1
59 15.0 10.0 10.0 20.0 122 182 92 0 1 0 0 0 0 0 0 1 1
60 10.0 20.0 10.0 19.0 42 102 96 0 0 0 1 0 1 1 0 0 0
61 15.0 60.0 10.0 17.0 140 200 7 0 0 0 0 0 1 0 0 0 0
62 45.0 65.0 10.0 9.0 51 111 3 0 0 1 1 0 0 0 1 0 0
63 65.0 35.0 10.0 3.0 37 97 24 0 0 1 0 0 0 0 1 1 1
64 65.0 20.0 10.0 6.0 39 99 94 0 0 0 0 1 0 0 0 0 0
65 45.0 30.0 10.0 17.0 38 98 26 0 0 0 0 0 1 0 1 0 0
66 35.0 40.0 10.0 16.0 11 71 25 0 0 0 0 0 1 0 0 0 0
67 41.0 37.0 10.0 16.0 118 178 69 0 0 0 0 0 1 0 0 0 0
68 64.0 42.0 10.0 9.0 55 115 50 0 0 1 0 0 1 0 0 0 0
69 40.0 60.0 10.0 21.0 129 189 72 0 0 1 0 0 0 0 0 0 0
70 31.0 52.0 10.0 27.0 26 86 95 0 1 1 0 1 1 0 0 0 0
71 35.0 69.0 10.0 23.0 150 210 61 1 0 0 0 0 1 0 1 0 1
72 65.0 55.0 10.0 14.0 50 110 2 0 0 0 0 1 0 0 0 0 0
73 63.0 65.0 10.0 8.0 27 87 57 1 0 0 0 0 0 0 1 0 0
74 2.0 60.0 10.0 5.0 62 122 6 0 0 0 0 1 1 0 0 0 1
75 20.0 20.0 10.0 8.0 126 186 51 0 0 0 0 0 0 1 0 0 0
76 5.0 5.0 10.0 16.0 59 119 98 0 1 0 0 0 1 0 0 0 0
77 60.0 12.0 10.0 31.0 60 120 50 0 1 0 0 1 0 1 0 0 0
78 23.0 3.0 10.0 7.0 120 180 59 0 0 0 1 1 0 0 0 0 0
79 8.0 56.0 10.0 27.0 75 135 39 0 0 1 0 0 0 0 0 0 0
80 6.0 68.0 10.0 30.0 74 134 80 0 0 0 0 0 0 0 1 1 1
81 47.0 47.0 10.0 13.0 162 222 39 0 1 0 1 0 0 1 0 1 1
82 49.0 58.0 10.0 10.0 71 131 71 0 0 0 1 0 0 0 0 0 0
83 27.0 43.0 10.0 9.0 27 87 0 0 1 0 0 0 1 1 0 0 0
84 37.0 31.0 10.0 14.0 20 80 60 0 0 0 1 0 0 1 1 0 0
85 57.0 29.0 10.0 18.0 81 141 64 0 0 1 0 0 0 1 0 0 0
86 63.0 23.0 10.0 2.0 72 132 9 0 1 1 1 1 1 0 0 0 0
87 21.0 24.0 10.0 28.0 72 132 17 1 0 0 1 0 0 1 0 0 0
88 12.0 24.0 10.0 13.0 75 135 60 0 0 0 0 0 0 0 0 0 1
89 24.0 58.0 10.0 19.0 52 112 95 0 1 1 0 0 0 0 0 1 0
90 67.0 5.0 10.0 25.0 117 177 12 0 0 0 0 0 0 0 1 0 0
91 37.0 47.0 10.0 6.0 71 131 4 0 0 0 1 0 0 0 1 0 1
92 49.0 42.0 10.0 13.0 152 212 57 0 0 1 0 0 0 0 0 0 1
93 53.0 43.0 10.0 14.0 14 74 16 0 1 0 0 0 0 1 0 0 0
94 61.0 52.0 10.0 3.0 148 208 69 0 0 0 0 0 0 0 1 0 0
95 57.0 48.0 10.0 23.0 80 140 82 0 0 0 0 0 1 0 0 1 0
96 56.0 37.0 10.0 6.0 20 80 17 0 1 0 1 0 0 0 1 0 0
97 55.0 54.0 10.0 26.0 117 177 93 0 0 0 0 0 1 0 0 0 0
98 4.0 18.0 10.0 35.0 105 165 89 0 0 0 1 1 0 0 1 0 0
99 26.0 52.0 10.0 9.0 31 91 84 0 0 0 0 0 0 1 0 0 0
100 26.0 35.0 10.0 15.0 62 122 68 0 1 0 0 0 0 0 0 1 0
101 31.0 67.0 10.0 3.0 150 210 97 0 0 0 0 0 1 0 0 0 0